Version identifier: 22.1.1.0 | 2022-11-28 | 9160aff4d
CPXPARAM_ClockType                               1
CPXPARAM_Read_DataCheck                          1
CPXPARAM_Threads                                 1
CPXPARAM_TimeLimit                               7200
CPXPARAM_MIP_Tolerances_AbsMIPGap                0
CPXPARAM_MIP_Tolerances_MIPGap                   0
CPXPARAM_MIP_Tolerances_Integrality              0
Tried aggregator 2 times.
MIP Presolve eliminated 7416 rows and 34 columns.
MIP Presolve modified 2175 coefficients.
Aggregator did 787 substitutions.
Reduced MIP has 1807 rows, 2881 columns, and 9998 nonzeros.
Reduced MIP has 2881 binaries, 0 generals, 0 SOSs, and 0 indicators.
Presolve time = 0.04 sec. (21.26 ticks)
Found incumbent of value -6826.000000 after 0.07 sec. (39.48 ticks)
Probing time = 0.00 sec. (1.97 ticks)
Tried aggregator 2 times.
Detecting symmetries...
Aggregator did 1 substitutions.
Reduced MIP has 1806 rows, 2880 columns, and 10002 nonzeros.
Reduced MIP has 2880 binaries, 0 generals, 0 SOSs, and 0 indicators.
Presolve time = 0.02 sec. (8.96 ticks)
Probing time = 0.00 sec. (1.97 ticks)
Clique table members: 937.
MIP emphasis: balance optimality and feasibility.
MIP search method: dynamic search.
Parallel mode: none, using 1 thread.
Root relaxation solution time = 0.24 sec. (175.24 ticks)

        Nodes                                         Cuts/
   Node  Left     Objective  IInf  Best Integer    Best Bound    ItCnt     Gap

*     0+    0                        -6826.0000     3668.0000           153.74%
      0     0      953.6667   511    -6826.0000      953.6667     3852  113.97%
      0     0      903.6667   386    -6826.0000      Cuts: 73     4440  113.24%
      0     0      898.6667   443    -6826.0000      Cuts: 61     4877  113.17%
      0     0      896.6667   449    -6826.0000  ZeroHalf: 12     4974  113.14%
*     0+    0                          700.0000      896.6667            28.10%
*     0+    0                          714.0000      896.6667            25.58%
*     0+    0                          754.0000      896.6667            18.92%
      0     0        cutoff            754.0000      896.6667     4974   18.92%
      0     0      896.6667   495      754.0000      Cuts: 18     5033   18.92%
      0     0      896.6667   272      754.0000   ZeroHalf: 1     5146   18.92%
      0     0      896.6667   367      754.0000      Cuts: 37     5248   18.92%
*     0+    0                          896.0000      896.6667             0.07%
      0     0        cutoff            896.0000      896.6667     5248    0.07%
Elapsed time = 1.34 sec. (931.05 ticks, tree = 0.01 MB, solutions = 5)

Cover cuts applied:  2
Zero-half cuts applied:  80

Root node processing (before b&c):
  Real time             =    1.34 sec. (931.30 ticks)
Sequential b&c:
  Real time             =    0.00 sec. (0.00 ticks)
                          ------------
Total (root+branch&cut) =    1.34 sec. (931.30 ticks)
Solution is feasible.

---------------------
@@@ MIP_optimal
>>> Benchmark mc2024_track1_006.cnf k 5 OPT 896 TimeCost 2.224738597869873 TimeSolve 1.3506646156311035 TimeRead 0.004614591598510742 TimeTrans 0.8694593906402588
